Results/Experiment 1 Results/Existing Benchmark/RES_80/i-80-100-2.txt
solutions: 0 nodes: 11  modelTime: 112  solveTime: 25  totalTime: 150  modelSize: 7851  readTime: 13 matchingSize: 0
