Results/Experiment 2 Results/Existing Benchmark/i-80-100-2.lp
clingo version 5.4.0
Reading from tempSRTISolver.lp ...
Solving...
UNSATISFIABLE

Models       : 0
Calls        : 1
Time         : 28.157s (Solving: 3.75s 1st Model: 0.00s Unsat: 3.75s)
CPU Time     : 28.131s
